
===== New CPLEX run =====
Instance: /home/yorig/tuner/mpils-tests/instances/miplib/easy/mas74.mps
Config: /scratch/yorig/mpils-results-grid-ticks-10000-divide/easy/16proc/seed-4/5_mas74_seed-4_20260429_043455/expansion/config_param_CPXPARAM_Read_Scale_-1_iter_5.prm
========================

Selected objective sense:  MINIMIZE
Selected objective  name:  obj
Selected RHS        name:  rhs
Selected bound      name:  bnd
Version identifier: 22.1.2.0 | 2024-11-26 | 0edbb82fd
CPXPARAM_Simplex_DGradient                       1
CPXPARAM_Read_Scale                              -1
CPXPARAM_Threads                                 8
CPXPARAM_Parallel                                1
CPXPARAM_MIP_Cuts_Cliques                        1
CPXPARAM_MIP_Cuts_Covers                         -1
CPXPARAM_MIP_OrderType                           2
CPXPARAM_MIP_Strategy_PresolveNode               -1
CPXPARAM_MIP_Cuts_FlowCovers                     -1
CPXPARAM_MIP_Cuts_Implied                        -1
CPXPARAM_MIP_Cuts_GUBCovers                      -1
CPXPARAM_MIP_Limits_GomoryCand                   10
CPXPARAM_MIP_Cuts_Gomory                         2
CPXPARAM_MIP_Cuts_PathCut                        2
CPXPARAM_MIP_Cuts_MIRCut                         -1
CPXPARAM_MIP_Cuts_Disjunctive                    2
CPXPARAM_Emphasis_MIP                            3
CPXPARAM_MIP_Strategy_RINSHeur                   -1
CPXPARAM_DetTimeLimit                            10000
CPXPARAM_MIP_Limits_CutsFactor                   1
Generated priority order by increasing bound range.
Found incumbent of value 157344.610330 after 0.00 sec. (0.02 ticks)
Tried aggregator 1 time.
MIP Presolve eliminated 0 rows and 3 columns.
Reduced MIP has 13 rows, 148 columns, and 1682 nonzeros.
Reduced MIP has 145 binaries, 2 generals, 0 SOSs, and 0 indicators.
Presolve time = 0.00 sec. (0.84 ticks)
Probing time = 0.00 sec. (0.09 ticks)
Tried aggregator 1 time.
Detecting symmetries...
Reduced MIP has 13 rows, 148 columns, and 1682 nonzeros.
Reduced MIP has 145 binaries, 2 generals, 0 SOSs, and 0 indicators.
Presolve time = 0.00 sec. (0.79 ticks)
Probing time = 0.00 sec. (0.09 ticks)
MIP emphasis: best bound.
MIP search method: dynamic search.
Parallel mode: deterministic, using up to 8 threads.
Root relaxation solution time = 0.01 sec. (0.50 ticks)

        Nodes                                         Cuts/
   Node  Left     Objective  IInf  Best Integer    Best Bound    ItCnt     Gap

*     0+    0                       157344.6103        0.0000           100.00%
*     0+    0                        51840.4943        0.0000           100.00%
      0     0    10482.7953    12    51840.4943    10482.7953       28   79.78%
*     0+    0                        19197.4680    10482.7953            45.39%
*     0+    0                        15240.3317    10482.7953            31.22%
*     0+    0                        14372.8713    10482.7953            27.07%
Detecting symmetries...
      0     2    10482.7953    12    14372.8713    10513.0180       28   26.86%
Elapsed time = 0.53 sec. (6.53 ticks, tree = 0.02 MB, solutions = 5)
*     5+    1                        13279.7434    10526.8584            20.73%
*    23+    7                        12915.1000    10526.8584            18.49%
*   236+  116                        12893.7917    10626.7050            17.58%
*   371+  170                        12536.2311    10638.7960            15.14%
*   453+  207                        12285.6019    10645.5893            13.35%
*  1284+  661                        12101.8924    10702.9359            11.56%

Performing restart 1

Repeating presolve.
Tried aggregator 1 time.
MIP Presolve eliminated 0 rows and 44 columns.
Reduced MIP has 13 rows, 104 columns, and 1119 nonzeros.
Reduced MIP has 101 binaries, 2 generals, 0 SOSs, and 0 indicators.
Presolve time = 0.00 sec. (0.40 ticks)
Tried aggregator 1 time.
Reduced MIP has 13 rows, 104 columns, and 1119 nonzeros.
Reduced MIP has 101 binaries, 2 generals, 0 SOSs, and 0 indicators.
Presolve time = 0.00 sec. (0.50 ticks)
Represolve time = 0.00 sec. (1.22 ticks)
*  3483+  300                        12007.4486    10740.5652            10.55%
  18134 14005    11147.9751    11    12007.4486    10991.2635   112454    8.46%
* 35983+31397                        11801.1857    11084.2948             6.07%
  40121 34333    11154.1342    12    11801.1857    11099.5382   260193    5.95%
  67896 58752    11284.0061    12    11801.1857    11180.8954   437710    5.26%

Performing restart 2

Repeating presolve.
Tried aggregator 1 time.
MIP Presolve eliminated 0 rows and 7 columns.
Reduced MIP has 13 rows, 97 columns, and 1030 nonzeros.
Reduced MIP has 95 binaries, 1 generals, 0 SOSs, and 0 indicators.
Presolve time = 0.00 sec. (0.34 ticks)
Tried aggregator 1 time.
Reduced MIP has 13 rows, 97 columns, and 1030 nonzeros.
Reduced MIP has 95 binaries, 1 generals, 0 SOSs, and 0 indicators.
Presolve time = 0.00 sec. (0.46 ticks)
Represolve time = 0.02 sec. (1.98 ticks)
  88096 17402    11158.0931    12    11801.1857    11185.5968   577997    5.22%
 116372 42414    11735.7128    12    11801.1857    11185.5968   757664    5.22%
 145986 68724    11447.0390    12    11801.1857    11231.6268   952572    4.83%
 176801 94463    11453.1546    12    11801.1857    11275.7935  1149016    4.45%
 208638 120839    11527.6011    11    11801.1857    11311.4808  1354936    4.15%
 241185 146167    11598.6188     9    11801.1857    11339.5582  1557457    3.91%
 378314 244170    11475.8227    12    11801.1857    11423.3169  2394515    3.20%
Elapsed time = 20.01 sec. (3106.05 ticks, tree = 55.74 MB, solutions = 19)
 522080 333453    11697.1477    11    11801.1857    11482.5160  3246288    2.70%
 673147 412505    11558.7340    12    11801.1857    11530.5592  4124267    2.29%
 840345 483791        cutoff          11801.1857    11573.3151  5073826    1.93%
 1015182 536935    11655.1767    11    11801.1857    11610.6472  6027330    1.61%
 1195545 563300    11739.0582    12    11801.1857    11643.5396  6954502    1.34%
 1381479 558178        cutoff          11801.1857    11673.2652  7826801    1.08%
 1583399 510854    11789.6205    12    11801.1857    11702.0961  8681239    0.84%

Clique cuts applied:  0
Flow path cuts applied:  0
Gomory fractional cuts applied:  0
Disjunctive cuts applied:  0
Cone linearizations applied:  0

Root node processing (before b&c):
  Real time             =    0.43 sec. (6.49 ticks)
Parallel b&c, 8 threads:
  Real time             =   75.19 sec. (9995.50 ticks)
  Sync time (average)   =   50.03 sec.
  Wait time (average)   =    1.47 sec.
                          ------------
Total (root+branch&cut) =   75.62 sec. (10001.98 ticks)
Gap: 0.78%
Upper bound: 11801.2
Lower bound: 11709.5
End of CPLEX run. Time: 75.6413 seconds
